161
170
175
180
189
190
191
194
198
203
204
211
217
218
221
228
235
242
243
245
255
259
260
266
272
273
275
276
277
278
280
284
288
291
292
294
304
308
309
314
315
316
317
320
325
326
327
328
329
330
332
334
335
343
346
350
351
353
354
355
358
360
361
363
364
366
368
369
370
372
377
381
387
388
389
390
393
397
400
403
407
409
411
422
428
446
447
451
457
461
462
471
474
475
477
479
481
487
489
491
494
496
504
506
524
530
539
543
544
547
550
554
556
557
563
564
565
574